File : Instances/p70
Use 167 s

33678

1 0 0 1 0 0 0 1 0 0 0 0 1 0 0 0 0 0 0 1 1 1 0 0 0 0 1 1 0 0 
7 19 21 27 21 12 21 27 27 27 26 19 3 3 19 7 3 20 27 27 7 21 3 0 20 27 27 19 26 21 19 19 26 21 27 12 20 20 27 21 7 20 12 26 3 19 3 21 19 26 21 21 21 21 20 12 7 26 7 7 26 0 7 20 3 12 3 19 19 7 7 12 19 20 0 3 20 0 20 21 20 0 26 7 26 3 19 0 27 7 27 19 7 7 0 3 27 12 0 27 19 21 12 7 26 0 26 27 27 3 19 19 27 12 12 20 12 7 0 3 26 7 0 19 26 21 21 12 26 0 27 21 12 20 3 26 3 3 0 20 12 27 12 7 7 0 27 21 27 7 27 0 3 0 3 7 21 21 3 3 3 27 20 0 0 27 3 26 3 21 3 20 19 26 26 0 0 20 26 20 21 21 21 19 12 20 12 20 0 21 21 21 19 12 7 12 7 21 20 19 
